

















































































54 60 
67 53 17 
58 69 47 
7 11 
25 35 
29 0 
64 37 
18 4 
71 52 28 
34 62 19 
75 45 
16 59 57 
41 44 
43 46 
49 40 74 
22 55 
66 9 
10 27 14 
6 12 
31 42 
8 70 
38 76 
50 32 
21 1 65 
24 23 
3 26 
13 33 48 
5 68 61 
63 72 73 
51 20 
2 15 36 
39 56 30 

